c User generated cnf file
p cnf 8 47
-4 3 6 0 
8 7 -6 0 
7 -1 5 0 
2 3 -3 0 
7 -7 8 0 
-6 6 7 0 
6 -7 4 0 
-8 3 5 0 
8 1 -6 0 
-7 4 6 0 
-5 2 7 0 
6 3 -1 0 
-5 5 4 0 
4 -2 1 0 
8 7 -3 0 
-7 2 5 0 
4 -1 5 0 
-1 7 2 0 
-3 7 5 0 
-1 5 3 0 
5 6 -3 0 
-6 6 5 0 
7 3 -7 0 
-2 2 5 0 
-5 2 3 0 
-8 1 8 0 
4 -4 3 0 
-2 4 8 0 
-2 3 5 0 
5 3 -1 0 
1 6 -2 0 
1 8 -5 0 
6 1 -4 0 
-8 2 2 0 
5 1 -8 0 
3 2 -3 0 
8 -5 7 0 
-8 2 5 0 
-8 7 6 0 
1 1 -5 0 
5 -7 1 0 
-1 2 8 0 
5 8 -6 0 
3 -7 5 0 
6 -4 7 0 
1 -1 6 0 
-2 4 7 0 
